100
32
3
21
6
12
25
18
10
13
8
32
13
4
12
22
2
31
17
16
10
4
32
18
9
8
14
16
8
30
32
27
5
16
22
13
19
12
6
8
10
20
4
32
11
9
7
22
30
12
13
31
15
11
30
23
13
18
17
29
7
18
6
17
15
16
19
20
23
3
8
8
4
21
4
26
26
5
27
28
28
21
3
25
8
13
29
28
2
17
19
18
6
1
10
22
19
24
11
32
24
9